38
CSD=LOYZII | GAZKUN state03 | Td | full no H
Cu      9.999008     1.533483     3.506283
N       8.506369     0.445630     4.117779
C       7.670901    -0.154337     4.649332
S       6.520292    -1.002443     5.404725
N       9.429393     2.727124     2.061695
C       8.934713     3.444868     1.305740
S       8.185665     4.457800     0.279240
N      11.491648     0.445630     2.894788
C      12.327116    -0.154337     2.363235
S      13.477725    -1.002443     1.607841
N      10.568624     2.727124     4.950872
C      11.063304     3.444868     5.706827
S      11.812352     4.457800     6.733326
P       2.050538     1.863135     4.920578
C       1.485437     0.674289     3.691415
C       1.634100     0.932017     2.330977
C       1.172151     0.032965     1.391293
C       0.573612    -1.149288     1.795217
C       0.426670    -1.420502     3.144435
C       0.869257    -0.513958     4.095339
C       0.791151     3.116564     5.186494
C       1.139135     4.448809     5.354796
C       0.164244     5.388318     5.670362
C      -1.153797     4.983745     5.823235
C      -1.503961     3.662138     5.635299
C      -0.546165     2.715137     5.312721
C       3.573311     2.637219     4.370232
C       4.777362     2.352220     5.018193
C       5.968942     2.870973     4.521703
C       5.968344     3.635167     3.374447
C       4.775969     3.933353     2.737706
C       3.572272     3.461350     3.238403
C       2.365838     0.988358     6.455769
C       1.923768     1.504414     7.673151
C       2.263829     0.857096     8.848457
C       3.044364    -0.283201     8.824614
C       3.480734    -0.807648     7.615648
C       3.141034    -0.175315     6.430524
