51
CSD=PIXYUR | GAZKUN_family state01 | ideal SP (τ₄=0.000) | [Cu(NCS)4]2- anion | formula=C14 H20 N4 2+,C4 Cu1 N4 S4 2-
Cu     -0.686660     7.904500     5.768777
S      -0.825523     3.874628     3.261090
S       3.399053     9.051601     3.612177
C      -0.797079     5.243213     4.157558
N      -0.765517     6.217047     4.782316
N       0.904504     8.423193     4.729013
C       1.948202     8.665229     4.284009
S      -0.547797    11.934372     8.276464
S      -4.772372     6.757399     7.925377
C      -0.576240    10.565787     7.379996
N      -0.607802     9.591953     6.755238
N      -2.277824     7.385807     6.808541
C      -3.321522     7.143771     7.253545
N       3.301618     6.293879     1.624372
H       3.411887     7.019196     2.111372
N       3.933472     5.049553    -0.202830
H       4.508252     4.937151    -0.859548
C       2.246582     5.338541     1.986651
H       1.513850     5.808227     2.457499
H       2.611885     4.646265     2.592488
C       5.540495     7.286684    -1.040803
H       5.066231     6.862687    -1.746786
C       5.178595     7.043068     0.293054
C       5.873347     7.664045     1.329588
H       5.628166     7.499790     2.232517
C       4.088333     6.088836     0.584839
C       1.714987     4.689898     0.725828
H       1.263324     5.370317     0.164987
H       1.051285     3.994934     0.962232
C       2.855965     4.064336    -0.049611
H       3.194091     3.269301     0.433812
H       2.537031     3.773608    -0.940311
N       9.160382     9.515121    -1.624372
H       9.050113     8.789804    -2.111372
N       8.528528    10.759447     0.202830
H       7.953748    10.871849     0.859548
C      10.215418    10.470459    -1.986651
H      10.948150    10.000773    -2.457499
H       9.850115    11.162735    -2.592488
C       6.921505     8.522316     1.040803
H       7.395769     8.946313     1.746786
C       7.283405     8.765932    -0.293054
C       6.588653     8.144955    -1.329588
H       6.833834     8.309210    -2.232517
C       8.373667     9.720164    -0.584839
C      10.747013    11.119102    -0.725828
H      11.198676    10.438683    -0.164987
H      11.410715    11.814066    -0.962232
C       9.606035    11.744664     0.049611
H       9.267909    12.539699    -0.433812
H       9.924969    12.035392     0.940311
