40
CSD=RUKKOY | GAZKUN state04 | distorted | full no H
Cu     -2.492404    -0.289424     4.796035
S      -0.399170     3.485110     3.124904
C      -1.089198     2.069211     3.496117
N      -1.585750     1.060992     3.754528
S       0.022042    -4.014777     3.642876
C      -0.675127    -2.630100     4.101569
N      -1.146155    -1.631137     4.439402
S      -4.585637     3.485110     6.467165
C      -3.895610     2.069211     6.095952
N      -3.399057     1.060992     5.837542
S      -5.006850    -4.014777     5.949193
C      -4.309681    -2.630100     5.490501
N      -3.838652    -1.631137     5.152668
K       5.401447     6.911921     0.143497
N       3.001541     6.240788     1.810407
C       1.969306     5.666499     0.935419
C       1.753024     6.408779    -0.348000
O       2.922358     6.358354    -1.141073
C       2.716629     6.981963    -2.397250
C       3.929622     6.842155    -3.246532
O       5.036272     7.462034    -2.613455
C       6.178130     7.429707    -3.452378
C       7.305232     8.170191    -2.801843
N       7.773301     7.573245    -1.543172
C       8.523917     6.335559    -1.783166
C       8.788645     5.532908    -0.553079
O       7.565781     5.067895    -0.001918
C       7.775920     4.499545     1.274786
C       6.531149     3.809348     1.712568
O       5.493198     4.763688     1.878895
C       4.285970     4.175446     2.327036
C       3.371768     5.254397     2.838293
C       2.523013     7.477783     2.446745
C       3.595911     8.280711     3.102459
O       4.491810     8.762716     2.114284
C       5.611905     9.424593     2.684820
C       6.407983    10.093239     1.618758
O       6.962662     9.106848     0.766982
C       7.862175     9.651435    -0.183017
C       8.617710     8.533249    -0.820506
