97
CSD=GAZKUN | GAZKUN_family state04 | intermediate (τ₄=0.606) | [Cu(NCS)4]2- anion | formula=C44 H38 P2 2+,C4 Cu1 N4 S4 2-
Cu      2.437344     3.829875     2.789799
N       2.775907     4.155872     0.919633
C       2.842834     4.026880    -0.166869
S       2.968643     3.839256    -1.770045
N       1.227284     5.251127     3.076566
C       0.558971     6.177520     3.263212
S      -0.334111     7.483852     3.490648
N       4.215515     3.335017     3.233547
C       5.324890     3.126285     3.448622
S       6.889689     2.865957     3.762583
N       1.514059     2.481327     3.782360
C       0.875514     1.686271     4.344769
S      -0.017363     0.605087     5.113602
P       5.626496     8.330506     3.217478
C       6.476781     9.723614     4.003615
C       5.823169    10.307593     5.228556
C       5.998453     9.660291     6.452261
C       5.421407    10.197364     7.568428
C       4.676874    11.355943     7.523929
C       4.561032    11.993864     6.305169
C       5.145796    11.480244     5.190238
C       3.982563    11.904743     8.727857
P       2.326781    11.243368     8.905850
C       5.080609     7.214143     4.488153
C       6.030081     6.456611     5.154392
C       5.694512     5.741294     6.260671
C       4.439365     5.835106     6.737792
C       3.474324     6.571531     6.087621
C       3.793712     7.286847     4.965274
C       6.780505     7.507305     2.150754
C       7.740704     8.262492     1.511708
C       8.620714     7.652714     0.663767
C       8.545334     6.308857     0.419026
C       7.570320     5.560706     1.043239
C       6.704023     6.163448     1.912193
C       4.227397     8.844126     2.250875
C       3.907581    10.150458     2.059285
C       2.854145    10.509289     1.237301
C       2.144735     9.559443     0.595783
C       2.461161     8.264837     0.744111
C       3.496118     7.891935     1.589580
C       1.554109    11.351252     7.311326
C       1.706256    10.335737     6.396638
C       1.263045    10.539778     5.108658
C       0.703799    11.731191     4.746491
C       0.539306    12.718562     5.641402
C       0.965013    12.537974     6.920729
C       1.391224    12.240121    10.029433
C       1.957039    13.215765    10.799502
C       1.183569    13.985024    11.637554
C      -0.156199    13.785673    11.699358
C      -0.713022    12.821755    10.958955
C       0.023096    12.038425    10.134499
C       2.394894     9.561788     9.467024
C       1.412664     8.640085     9.144411
C       1.479818     7.366587     9.604227
C       2.510770     6.963196    10.374296
C       3.487926     7.835647    10.725338
C       3.431352     9.134944    10.295188
H       6.504463     8.846472     6.507884
H       5.554885     9.761139     8.412660
H       4.065430    12.814719     6.244602
H       5.076125    11.958685     4.362074
H       6.916550     6.435503     4.919540
H       6.340753     5.178422     6.695765
H       4.209837     5.380118     7.552359
H       2.573382     6.580912     6.421359
H       3.133140     7.823921     4.521527
H       7.780377     9.212338     1.645203
H       9.315334     8.168680     0.249685
H       9.149358     5.893739    -0.199007
H       7.505295     4.617896     0.873898
H       6.044322     5.635756     2.370773
H       4.420031    10.832941     2.496852
H       2.623397    11.433338     1.124819
H       1.408947     9.808045     0.030902
H       1.975924     7.591736     0.260810
H       3.694982     6.963196     1.720603
H       6.564473    10.422513     3.352209
H       7.347584     9.418725     4.265661
H       4.489684    11.665522     9.506578
H       3.936622    12.861625     8.656165
H       2.115054     9.505501     6.650031
H       1.359116     9.845569     4.454779
H       0.408095    11.857837     3.841691
H       0.120941    13.541762     5.379356
H       0.863872    13.250945     7.558539
H       2.904383    13.361174    10.766128
H       1.594453    14.667506    12.172771
H      -0.696497    14.334474    12.271656
H      -1.660280    12.678692    11.009633
H      -0.400315    11.337180     9.633893
H       0.675111     8.905104     8.589417
H       0.780680     6.745083     9.385443
H       2.566389     6.048529    10.658591
H       4.205369     7.549521    11.295164
H       4.118226     9.751757    10.555997
