53
CSD=TUGKOX | GAZKUN_family state02 | near-SP (τ₄=0.056) | [Cu(NCS)4]2- anion | formula=C16 H20 N4 2+,C4 Cu1 N4 S4 2-
Cu      9.403553     5.292414     2.177157
S       6.120437     1.951312     2.938030
S       6.346284     8.542408     3.762041
N       8.114144     3.877239     2.666408
N       8.147574     6.658977     2.791028
C       7.296993     3.073460     2.790245
C       7.413040     7.448450     3.198418
S      12.686669     1.951312     1.416284
S      12.460822     8.542408     0.592274
N      10.692962     3.877239     1.687906
N      10.659531     6.658977     1.563286
C      11.510113     3.073460     1.564070
C      11.394065     7.448450     1.155896
N       4.427103    12.298189     1.353321
N       5.790191    12.257937     3.021981
C       3.672196    12.391036     2.497896
H       2.746667    12.459899     2.542920
C       4.520031    12.364809     3.538229
H       4.290767    12.410811     4.438788
C       5.704361    12.220631     1.697312
H       6.421022    12.151347     1.108608
C       7.021028    12.212356     3.832232
H       7.011856    11.412224     4.381311
H       7.042020    12.980230     4.423983
C       8.836640    11.017417     2.579496
H       8.462970    10.211675     2.852076
C       8.264245    12.211795     2.973474
C       8.833786    13.408977     2.572355
H       8.450912    14.215841     2.833788
C       3.915371    12.266212    -0.023513
H       3.304451    11.532840    -0.121050
H       4.646802    12.155554    -0.634859
H       3.460335    13.089626    -0.215974
N      14.380003    12.298189     3.000993
N      13.016914    12.257937     1.332333
C      15.134910    12.391036     1.856418
H      16.060439    12.459899     1.811395
C      14.287075    12.364809     0.816086
H      14.516339    12.410811    -0.084474
C      13.102744    12.220631     2.657003
H      12.386083    12.151347     3.245706
C      11.786077    12.212356     0.522082
H      11.795249    11.412224    -0.026997
H      11.765086    12.980230    -0.069669
C       9.970465    11.017417     1.774819
H      10.344136    10.211675     1.502238
C      10.542861    12.211795     1.380840
C       9.973319    13.408977     1.781960
H      10.356194    14.215841     1.520527
C      14.891735    12.266212     4.377828
H      15.502654    11.532840     4.475364
H      14.160303    12.155554     4.989173
H      15.346770    13.089626     4.570288
