33
CSD=TUGKOX | GAZKUN state05 | SP | full no H
Cu      9.403553     5.292414     2.177157
S       6.120437     1.951312     2.938030
S       6.346284     8.542408     3.762041
N       8.114144     3.877239     2.666408
N       8.147574     6.658977     2.791028
C       7.296993     3.073460     2.790245
C       7.413040     7.448450     3.198418
S      12.686669     1.951312     1.416284
S      12.460822     8.542408     0.592274
N      10.692962     3.877239     1.687906
N      10.659531     6.658977     1.563286
C      11.510113     3.073460     1.564070
C      11.394065     7.448450     1.155896
N       4.427103    12.298189     1.353321
N       5.790191    12.257937     3.021981
C       3.672196    12.391036     2.497896
C       4.520031    12.364809     3.538229
C       5.704361    12.220631     1.697312
C       7.021028    12.212356     3.832232
C       8.836640    11.017417     2.579496
C       8.264245    12.211795     2.973474
C       8.833786    13.408977     2.572355
C       3.915371    12.266212    -0.023513
N      14.380003    12.298189     3.000993
N      13.016914    12.257937     1.332333
C      15.134910    12.391036     1.856418
C      14.287075    12.364809     0.816086
C      13.102744    12.220631     2.657003
C      11.786077    12.212356     0.522082
C       9.970465    11.017417     1.774819
C      10.542861    12.211795     1.380840
C       9.973319    13.408977     1.781960
C      14.891735    12.266212     4.377828
