32
CSD_code=MIGTEE02 | IKEXEC family state04 | no H
C       3.341714     6.508772     1.050335
C       2.339795     6.767683    -0.015788
C       0.614861     8.331400    -0.510074
C       0.264465     7.656230    -1.656699
C      -0.817408     8.076395    -2.436036
C      -1.553790     9.145484    -2.060073
C      -1.212595     9.879613    -0.891588
C      -0.099729     9.501563    -0.105832
C      -2.005074    10.999728    -0.556397
C      -2.725715    12.848234     0.727636
C      -3.702852    13.320889    -0.126651
C      -4.516640    14.348108     0.279847
C      -4.353959    14.911339     1.527966
C      -3.353903    14.494470     2.373231
C      -2.510485    13.466152     1.958058
C      -0.988057    13.519619     3.768820
C       0.239973    13.291226     4.418036
C       0.549014    14.095789     5.545577
C       1.778998    14.080775     6.088788
C       2.784123    13.279263     5.525972
C       2.511687    12.470549     4.446663
C       1.214697    12.420867     3.875519
C       4.760307    11.665864     4.338402
C       5.569113    10.689670     3.545186
N      -1.841631    11.761445     0.493765
N      -1.363323    12.985440     2.642668
O       1.636404     7.968241     0.312811
O       0.308283    10.145848     0.947453
O       0.993240    11.618256     2.865434
O       3.441856    11.686249     3.815664
Ni     -0.481385    11.617402     1.744313
O      -2.939447    15.187095     5.836527
