11
CSD_code=MIGTEE02 | first_sphere | Ni + donors + backbone | no H
C      -0.099729     9.501563    -0.105832
C      -2.005074    10.999728    -0.556397
C      -2.725715    12.848234     0.727636
C      -2.510485    13.466152     1.958058
C      -0.988057    13.519619     3.768820
C       1.214697    12.420867     3.875519
N      -1.841631    11.761445     0.493765
N      -1.363323    12.985440     2.642668
O       0.308283    10.145848     0.947453
O       0.993240    11.618256     2.865434
Ni     -0.481385    11.617402     1.744313
