11
CSD_code=IKEXEC | first_sphere | Ni + donors + backbone | no H
Ni      1.798022    10.814633     5.542562
O       2.181315    11.875511     7.013147
O       3.027141     9.687918     6.298993
N       0.556056    11.973414     4.805156
N       1.427910     9.718141     4.097566
C       1.713175    13.083488     7.258355
C       0.266804    13.173392     5.257969
C      -0.074024    11.476106     3.641416
C       0.437565    10.236010     3.219755
C       1.926208     8.512948     3.891742
C       3.391408     8.501290     5.872103
