11
CSD_code=SONXUP | first_sphere | Ni + donors + backbone | no H
Ni     -0.109383     8.615022     0.447493
O      -1.577185     8.593108     1.571015
N      -0.851073     7.486523    -0.825986
C      -2.724332     8.021715     1.352490
O       0.599715     9.719834     1.742291
N       1.388992     8.650022    -0.648803
C      -2.063194     7.000720    -0.801785
C       0.022151     7.203344    -1.907517
C       1.263835     7.838289    -1.803224
C       2.471356     9.353908    -0.445404
C       1.756128    10.324724     1.710312
