32
CSD_code=MIGTEE03 | IKEXEC family state05 | no H
Ni      2.609428     9.222943     6.417970
O       2.918601     8.520982     2.105031
O       2.956602     8.878478     4.647183
O       0.853856     9.155035     5.877970
O      -1.432298     8.785086     4.713414
N       4.381448     9.175596     6.947594
N       2.228060     9.699750     8.165134
C       1.371304     8.522575     0.325634
C       2.830022     8.528367     0.673345
C       4.153354     8.484928     2.680133
C       5.339507     8.276425     2.024450
C       6.547739     8.218507     2.752987
C       6.550417     8.379229     4.098573
C       5.339383     8.618139     4.793995
C       4.119751     8.670265     4.093054
C       5.400085     8.852705     6.192565
C       4.566619     9.424641     8.334023
C       5.776175     9.385547     9.027237
C       5.768434     9.608530    10.387173
C       4.581051     9.837304    11.063829
C       3.383824     9.870607    10.382757
C       3.371415     9.686719     9.007367
C       1.059135    10.084902     8.601153
C      -0.152161    10.045808     7.870408
C      -1.339415    10.500461     8.497392
C      -2.549925    10.367250     7.873720
C      -2.617679     9.770699     6.596572
C      -1.478080     9.365276     5.955239
C      -0.196324     9.524549     6.553522
C      -2.675271     8.544294     4.044485
C      -2.358158     7.910096     2.724287
O       0.798250     7.061603     3.612882
