32
CSD_code=MIGTEE01 | IKEXEC family state02 | no H
Ni      2.714201     2.041017     6.372742
O       0.951332     1.984783     5.867508
C      -1.376694     2.208525     5.983012
N       2.367189     2.550098     8.120118
N       4.493296     1.986868     6.872340
O       3.031383     1.661384     4.602266
O       2.957225     1.291062     2.052992
C      -0.083489     2.364937     6.562744
O      -1.361709     1.620866     4.748277
C      -2.615867     1.381632     4.109521
C      -2.331290     0.746305     2.779840
C      -2.503373     2.625920     6.651721
C      -2.393625     3.227879     7.917295
C      -1.192123     3.367160     8.515264
C      -0.012894     2.900310     7.870872
C       1.215123     2.950063     8.572740
C       3.526134     2.546671     8.945228
C       3.548698     2.756560    10.318015
C       4.772608     2.719022    10.976777
C       5.931934     2.469807    10.293699
C       5.922028     2.227146     8.925332
C       4.696474     2.249192     8.256623
C       5.492668     1.636805     6.103490
C       5.411702     1.386548     4.715228
C       4.178708     1.445388     4.029939
C       4.193541     1.241309     2.617361
C       2.844455     1.269165     0.633339
C       1.390502     1.312364     0.309485
C       5.366781     1.004011     1.948651
C       6.575398     0.935488     2.650520
C       6.602750     1.113498     3.987938
O      -4.767231     0.168924     7.370169
