40
CSD_code=SONXUP | IKEXEC family state03 | no H
Ni     -0.109383     8.615022     0.447493
O      -1.577185     8.593108     1.571015
N      -0.851073     7.486523    -0.825986
C      -2.724332     8.021715     1.352490
O       0.599715     9.719834     1.742291
N       1.388992     8.650022    -0.648803
C      -3.759494     8.194937     2.329729
O      -3.395917     8.981952     3.382882
C      -4.994764     7.605611     2.168680
O       1.096891    11.301114     3.733933
C      -5.277064     6.824395     1.028809
C      -4.315389     6.644092     0.071449
C      -3.028301     7.234477     0.215932
C      -2.063194     7.000720    -0.801785
C       0.022151     7.203344    -1.907517
C      -0.257773     6.384277    -3.003453
C       0.711923     6.202398    -3.982996
C       1.955243     6.823577    -3.868188
C       2.238544     7.642240    -2.785793
C       1.263835     7.838289    -1.803224
C       2.471356     9.353908    -0.445404
C       2.707658    10.192421     0.672284
C       3.949742    10.881345     0.736530
C       4.248640    11.675057     1.811435
C       3.308402    11.831981     2.849319
C       2.087983    11.186479     2.798613
C       1.756128    10.324724     1.710312
C      -4.341870     9.096180     4.451305
C      -3.780523    10.047121     5.472911
C       1.407550    12.018758     4.932865
C       0.164492    12.022255     5.783195
Cl      0.632597     6.352507     3.167123
C       0.152209     7.752644     4.137130
Cl      1.517904     8.284376     5.100483
Cl     -1.194994     7.316351     5.188598
Cl     -3.180484    13.813639     4.446407
C      -3.782984    14.913392     5.667235
Cl     -5.244633    14.289743     6.412408
Cl     -2.567460    15.218900     6.881725
O      -1.765318    11.473726     2.918031
