11
CSD_code=MIGTEE01 | first_sphere | Ni + donors + backbone | no H
Ni      2.714201     2.041017     6.372742
O       0.951332     1.984783     5.867508
N       2.367189     2.550098     8.120118
N       4.493296     1.986868     6.872340
O       3.031383     1.661384     4.602266
C      -0.083489     2.364937     6.562744
C       1.215123     2.950063     8.572740
C       3.526134     2.546671     8.945228
C       4.696474     2.249192     8.256623
C       5.492668     1.636805     6.103490
C       4.178708     1.445388     4.029939
