11
CSD_code=MIGTEE03 | first_sphere | Ni + donors + backbone | no H
Ni      2.609428     9.222943     6.417970
O       2.956602     8.878478     4.647183
O       0.853856     9.155035     5.877970
N       4.381448     9.175596     6.947594
N       2.228060     9.699750     8.165134
C       4.119751     8.670265     4.093054
C       5.400085     8.852705     6.192565
C       4.566619     9.424641     8.334023
C       3.371415     9.686719     9.007367
C       1.059135    10.084902     8.601153
C      -0.196324     9.524549     6.553522
