44
CSD_code=IKEXEC | IKEXEC family state01 | no H
U       1.555331     9.663492    11.125621
O       0.464859    11.091364     9.404488
O      -0.594266    10.924838    11.265471
O      -1.385511    12.206690     9.680403
O       2.300625    11.058001    11.904971
O       2.861770    10.094101     9.133023
N      -0.544049    11.443490    10.093164
O       2.645803     8.235619    12.846755
O       3.704927     8.402145    10.985772
O       4.496173     7.120293    12.570840
O       0.810037     8.268982    10.346272
O       0.248892     9.232882    13.118220
N       3.654711     7.883493    12.158079
Ni      1.798022    10.814633     5.542562
O       3.143009    13.068906     9.108658
O       2.181315    11.875511     7.013147
O       3.027141     9.687918     6.298993
O       4.779980     8.487637     7.752444
N       0.556056    11.973414     4.805156
N       1.427910     9.718141     4.097566
C       4.797188    12.810020    10.782952
C       3.663272    13.672651    10.300100
C       2.183226    13.751476     8.415420
C       1.694886    15.002489     8.759202
C       0.768369    15.651393     7.935906
C       0.326881    15.057279     6.794417
C       0.778734    13.753284     6.436172
C       1.713175    13.083488     7.258355
C       0.266804    13.173392     5.257969
C      -0.074024    11.476106     3.641416
C      -1.143343    12.042623     2.960528
C      -1.665728    11.415963     1.849078
C      -1.113660    10.215640     1.398491
C      -0.075289     9.630615     2.084941
C       0.437565    10.236010     3.219755
C       1.926208     8.512948     3.891742
C       2.883986     7.876171     4.713926
C       3.316532     6.558088     4.376819
C       4.233467     5.922296     5.141150
C       4.762449     6.538890     6.288201
C       4.358053     7.803087     6.649784
C       3.391408     8.501290     5.872103
C       5.972882     8.036770     8.424321
C       6.489378     9.191991     9.239829
