11
CSD_code=LINMOL02 | LINMOL state03 | no H
Pd      3.579329    11.983981     1.036366
S       2.739405    11.819642    -1.123549
S       5.481262    11.889472    -0.319211
S       4.404713    12.067370     3.215857
S       1.668032    11.952794     2.391621
O       4.664329    11.654218    -2.865837
O       2.480295    11.999981     4.949694
C       4.372881    11.762693    -1.599263
C       6.067668    11.627100    -3.243456
C       2.770381    12.004048     3.674562
C       1.080072    11.929472     5.350847
