11
CSD_code=LINMOL01 | LINMOL state02 | no H
Pd      3.608674    12.265690     1.061861
S       5.512595    12.182434    -0.285468
S       2.783454    12.112499    -1.106647
S       1.701889    12.210741     2.412627
S       4.427405    12.337429     3.243901
O       2.507050    12.263609     4.966162
C       2.800809    12.266384     3.693476
O       4.709969    11.955562    -2.834278
C       4.411719    12.061019    -1.565888
C       1.117148    12.159539     5.372133
C       6.097784    11.937523    -3.219843
