11
CSD_code=LINMOL | LINMOL state01 | no H
Pd     -0.268692     8.403556     6.393612
S       0.561558     8.328946     8.574116
S      -2.178785     8.439428     7.745257
S       1.634312     8.492486     5.041432
S      -1.100315     8.563140     4.230980
O      -1.364283     8.396599    10.304820
O       0.819172     8.718496     2.491393
C      -1.077286     8.397963     9.044141
C      -2.764620     8.471618    10.705070
C       0.527436     8.613471     3.749931
C       2.209352     8.738956     2.106126
