15
CSD=ZEJCAS | WICHAR end | first_sphere | angles=[46.67, 46.67, 133.33, 133.33, 180.0, 180.0]
Fe      0.000000     0.000000     0.000000
C      -1.749846     1.026070     0.197761
C      -1.629805     0.228781    -1.200879
B      -1.484375    -0.019295     1.489714
B      -3.145254     0.496841     1.078579
B      -3.207921     0.679453    -0.666143
B      -1.245112    -1.409210    -0.945871
B      -2.900445    -0.893074    -1.394737
C       1.749846    -1.026070    -0.197761
C       1.629805    -0.228781     1.200879
B       1.484375     0.019295    -1.489714
B       1.245112     1.409210     0.945871
B       3.145254    -0.496841    -1.078579
B       3.207921    -0.679453     0.666143
B       2.900445     0.893074     1.394737
