15
CSD=WICHEV | WICHAR mid | first_sphere | angles=[45.29, 45.31, 99.22, 99.26, 99.45, 130.35]
Fe     -0.260560    17.307269     4.176380
C       1.639801    16.436811     4.316706
C       0.651592    15.982583     5.502798
B       1.715632    18.141458     4.241531
B       3.040974    17.188099     4.969892
B       2.330507    15.766696     5.771757
B      -0.051566    17.271000     6.289628
B       1.279001    16.329731     7.036365
C      -2.133921    16.428175     4.062782
C      -1.164284    15.932498     2.885043
B      -2.208833    18.112098     4.106217
B      -3.535530    17.146649     3.399573
B      -2.850800    15.739062     2.652836
B      -0.473717    17.241639     2.044756
B      -1.785966    16.283099     1.344794
