15
CSD=WICHAR | WICHAR start | first_sphere | angles=[46.1, 47.18, 95.29, 96.56, 98.7, 131.4]
Fe      8.333744     0.787737     2.812953
C       9.357768     0.730352     1.028998
C       7.971954    -0.073035     1.006161
B      10.295919     0.220410     2.323977
B      10.662754    -0.329963     0.656893
B       9.148702    -0.487771    -0.212248
B       7.835852    -1.172476     2.272930
B       8.194849    -1.713719     0.599129
C       6.404769     1.252032     3.238791
C       7.190915     2.453200     2.460998
B       7.283851     0.783824     4.613028
B       5.796881     1.788058     4.732585
B       5.754549     2.862719     3.320735
B       8.638496     2.847069     3.246852
B       7.173206     3.881299     3.377155
