17
CSD=LOWVUR | DEBXOX01 end | first_sphere | angles=[81.63, 81.78, 97.83, 98.82, 176.04, 178.91]
Pt     16.067286     4.340003    13.726751
P      17.922293     3.965469    12.368766
P      15.191848     2.597582    12.426314
P      17.004163     5.952329    15.103857
P      14.205095     4.755373    15.068556
C      17.240645     3.539068    10.744737
C      16.265928     2.365277    10.945143
C      19.191714     5.204411    12.015205
C      18.780011     2.488654    12.962080
C      15.219020     0.988301    13.247062
C      13.527526     2.738809    11.733900
C      14.870674     5.153662    16.714648
C      16.151825     5.931079    16.712809
C      16.779944     7.676636    14.512014
C      18.752494     5.807143    15.519563
C      12.925809     3.503236    15.411086
C      13.327162     6.202270    14.414568
