17
CSD=DEBXOX01 | DEBXOX01 mid | first_sphere | angles=[81.72, 81.72, 98.28, 98.28, 180.0, 180.0]
Pt     -9.543972     9.031800     5.621605
P     -10.772444     8.475260     3.710484
P      -8.227181     7.248561     4.882814
C     -10.290907     6.791914     3.151472
C      -9.393809     6.067563     4.144247
C     -12.603593     8.424863     3.848551
C     -10.428204     9.561063     2.289117
C      -7.203313     6.264456     6.015117
C      -7.131708     7.817926     3.546108
P      -8.315501     9.588340     7.532726
P     -10.860764    10.815039     6.360396
C      -8.797038    11.271686     8.091738
C      -9.694136    11.996037     7.098963
C      -6.484352     9.638737     7.394659
C      -8.659741     8.502537     8.954092
C     -11.884631    11.799144     5.228093
C     -11.956237    10.245674     7.697101
