17
CSD=TATHUU | DEBXOX01 start | first_sphere | angles=[86.96, 87.31, 117.88, 118.47, 118.92, 130.91]
Pt      6.254319     4.307730    16.739553
P       8.217755     4.144544    17.896496
C       9.118869     5.682268    18.362822
C       8.314747     3.138973    19.425462
C       9.442401     3.326424    16.775151
P       7.464128     3.893984    14.840550
C       7.545296     5.094504    13.462097
C       7.251478     2.322936    13.909002
C       9.256816     3.824627    15.344394
P       4.814650     6.018430    17.262663
C       4.927792     6.849880    18.909921
C       4.435201     7.494920    16.245265
C       3.139171     5.234884    17.415604
P       4.550394     2.879457    17.251187
C       4.731223     1.428169    18.350684
C       3.503710     2.149231    15.924597
C       3.290877     3.899816    18.149190
