31
CSD_code = ZENBID_rotated
Co      3.902626     2.676299     1.352876
S       5.008896     1.673131    -2.786658
N       5.742984     3.392336     1.583103
N       4.507732     1.233718     2.577079
N       4.479978     1.634185    -0.081730
C       6.598229     2.335810     2.153907
C       5.771477     1.634856     3.221365
C       4.703764     1.690337    -1.246951
H       6.186404     3.750099     0.736190
H       5.695787     4.167210     2.250239
H       4.692089     0.415036     1.991323
H       3.848646     0.947232     3.302107
H       6.848823     1.630723     1.357714
H       7.521718     2.744992     2.572818
H       6.305679     0.774074     3.633050
H       5.542369     2.329023     4.033895
N       2.062450     1.960220     1.122614
N       3.297500     4.118914     0.128389
N       3.323825     3.718377     2.786711
C       1.207000     3.017621     0.553964
H       1.619470     1.600936     1.969091
H       2.109674     1.186520     0.454119
C       2.032670     3.718586    -0.514312
H       3.114550     4.938240     0.713660
H       3.956142     4.404096    -0.597572
C       3.115868     3.670764     3.955138
H       0.958342     3.722357     1.351072
H       0.282515     2.609412     0.136287
H       1.498310     4.579758    -0.924958
H       2.260350     3.024565    -1.327352
S       2.830878     3.698475     5.498522
