31
CSD_code = ZENBID_original
Co      4.921721    -0.000045     0.000001
S       4.115534    -3.015216    -3.102374
N       6.833655    -0.537297    -0.092207
N       4.953596    -0.867982     1.786487
N       4.418495    -1.639074    -0.733333
C       7.094194    -1.553947     0.943190
C       6.350895    -1.104689     2.192187
C       4.306179    -2.202422    -1.773042
H       7.147000    -0.900370    -0.993246
H       7.400974     0.289188     0.114671
H       4.493583    -1.775455     1.675947
H       4.474497    -0.373497     2.540200
H       6.690627    -2.507960     0.595536
H       8.164115    -1.668114     1.138081
H       6.419571    -1.855352     2.984393
H       6.770052    -0.164710     2.560036
N       3.009899     0.537054     0.092204
N       4.889771     0.867814    -1.786752
N       5.423567     1.639534     0.732635
C       2.750266     1.555290    -0.941739
H       2.695956     0.898643     0.993610
H       2.442866    -0.289186    -0.116431
C       3.492487     1.106370    -2.191489
H       5.351116     1.774678    -1.676905
H       5.367553     0.372333    -2.540661
C       5.553959     2.200383     1.771472
H       3.155428     2.508249    -0.593059
H       1.680423     1.671224    -1.136051
H       3.424184     1.857812    -2.982979
H       3.072139     0.167157    -2.559895
S       5.767298     3.009588     3.099514
