76
CSD=RUKKOY | [Cu(NCS)4]2- family | tau4=0.345_intermediate | formula=2(C18 H36 K1 N2 O6 1+),C4 Cu1 N4 S4 2-
Cu     -2.492404    -0.289424     4.796035
S      -0.399170     3.485110     3.124904
C      -1.089198     2.069211     3.496117
N      -1.585750     1.060992     3.754528
S       0.022042    -4.014777     3.642876
C      -0.675127    -2.630100     4.101569
N      -1.146155    -1.631137     4.439402
S      -4.585637     3.485110     6.467165
C      -3.895610     2.069211     6.095952
N      -3.399057     1.060992     5.837542
S      -5.006850    -4.014777     5.949193
C      -4.309681    -2.630100     5.490501
N      -3.838652    -1.631137     5.152668
K       5.401447     6.911921     0.143497
N       3.001541     6.240788     1.810407
C       1.969306     5.666499     0.935419
H       1.131194     5.640664     1.421545
H       2.215521     4.752360     0.725160
C       1.753024     6.408779    -0.348000
H       1.012719     6.012288    -0.832592
H       1.527708     7.333002    -0.155392
O       2.922358     6.358354    -1.141073
C       2.716629     6.981963    -2.397250
H       2.519665     7.922903    -2.265647
H       1.959117     6.573177    -2.843089
C       3.929622     6.842155    -3.246532
H       4.120472     5.901768    -3.391756
H       3.772999     7.255638    -4.109243
O       5.036272     7.462034    -2.613455
C       6.178130     7.429707    -3.452378
H       5.967592     7.840012    -4.306839
H       6.441101     6.511010    -3.614292
C       7.305232     8.170191    -2.801843
H       8.050109     8.210254    -3.422450
H       7.018640     9.080599    -2.626309
N       7.773301     7.573245    -1.543172
C       8.523917     6.335559    -1.783166
H       9.373035     6.562125    -2.196584
H       8.027271     5.788485    -2.411446
C       8.788645     5.532908    -0.553079
H       9.355719     4.775845    -0.773121
H       9.253894     6.078600     0.099758
O       7.565781     5.067895    -0.001918
C       7.775920     4.499545     1.274786
H       8.009132     5.194440     1.910740
H       8.508737     3.864056     1.235459
C       6.531149     3.809348     1.712568
H       6.268538     3.152583     1.049372
H       6.689873     3.347375     2.551490
O       5.493198     4.763688     1.878895
C       4.285970     4.175446     2.327036
H       4.472373     3.539403     3.034931
H       3.858994     3.701039     1.596120
C       3.371768     5.254397     2.838293
H       2.564454     4.843539     3.184567
H       3.807928     5.713884     3.572087
C       2.523013     7.477783     2.446745
H       1.854781     7.247349     3.111667
H       2.091077     8.026515     1.774533
C       3.595911     8.280711     3.102459
H       3.201965     9.025339     3.581679
H       4.076175     7.728111     3.740907
O       4.491810     8.762716     2.114284
C       5.611905     9.424593     2.684820
H       6.168424     8.780814     3.151954
H       5.308206    10.083569     3.328448
C       6.407983    10.093239     1.618758
H       5.838675    10.688666     1.106925
H       7.117797    10.620972     2.018171
O       6.962662     9.106848     0.766982
C       7.862175     9.651435    -0.183017
H       8.477932    10.260400     0.255149
H       7.372594    10.147118    -0.857531
C       8.617710     8.533249    -0.820506
H       9.264019     8.907912    -1.438810
H       9.110682     8.058290    -0.132371
